This is Ipopt version 3.14.14, running with linear solver MUMPS 5.6.2.

Number of nonzeros in equality constraint Jacobian...:        0
Number of nonzeros in inequality constraint Jacobian.:      144
Number of nonzeros in Lagrangian Hessian.............:        0

Total number of variables............................:       12
                     variables with only lower bounds:        0
                variables with lower and upper bounds:       12
                     variables with only upper bounds:        0
Total number of equality constraints.................:        0
Total number of inequality constraints...............:       12
        inequality constraints with only lower bounds:        0
   inequality constraints with lower and upper bounds:        0
        inequality constraints with only upper bounds:       12

iter    objective    inf_pr   inf_du lg(mu)  ||d||  lg(rg) alpha_du alpha_pr  ls
   0  3.1424652e-02 0.00e+00 1.33e-01   0.0 0.00e+00    -  0.00e+00 0.00e+00   0
   1  1.6239274e-02 0.00e+00 4.34e-02  -1.2 6.77e-02    -  9.88e-01 9.90e-01h  1
   2  1.0266122e-02 0.00e+00 4.15e-01  -2.4 2.10e-01    -  1.00e+00 9.90e-01h  1
   3  8.7198741e-03 0.00e+00 1.46e-02  -3.3 3.35e-02    -  1.00e+00 9.99e-01h  1
   4  5.2633833e-03 0.00e+00 1.64e-02  -4.0 6.15e-01    -  9.99e-01 2.50e-01f  3
   5  5.2243297e-03 0.00e+00 1.65e-02  -5.1 6.19e-02    -  1.00e+00 1.00e+00f  1
   6  4.6016281e-03 0.00e+00 1.56e-02  -6.9 3.13e-02    -  1.00e+00 1.00e+00f  1
   7  3.1162461e-03 0.00e+00 2.01e-02  -7.6 1.08e+00    -  1.00e+00 1.25e-01f  4
   8  2.9647194e-03 0.00e+00 1.14e-02  -8.9 1.09e-01    -  1.00e+00 1.25e-01f  4
   9  2.9289832e-03 0.00e+00 7.31e-03 -10.0 3.63e-02    -  1.00e+00 1.00e+00f  1
iter    objective    inf_pr   inf_du lg(mu)  ||d||  lg(rg) alpha_du alpha_pr  ls
  10  2.7787405e-03 0.00e+00 2.63e-03 -11.0 3.14e-02    -  1.00e+00 1.00e+00f  1
  11  2.5159718e-03 0.00e+00 2.25e-03 -11.0 6.02e-02    -  1.00e+00 1.00e+00f  1
  12  2.1274274e-03 0.00e+00 2.83e-03 -11.0 6.88e-02    -  1.00e+00 1.00e+00f  1
  13  1.8715195e-03 0.00e+00 9.95e-03  -9.0 3.72e+03    -  7.85e-04 2.66e-05f  6
  14  1.5710577e-03 0.00e+00 7.73e-03 -11.0 1.23e-01    -  1.00e+00 1.00e+00f  1
  15  1.3608037e-03 0.00e+00 8.59e-03 -11.0 3.44e-01    -  1.00e+00 5.00e-01f  2
  16  1.3010161e-03 0.00e+00 7.81e-03 -11.0 8.29e-02    -  1.00e+00 1.00e+00f  1
  17  1.2863117e-03 0.00e+00 2.28e-03 -11.0 5.73e-02    -  1.00e+00 1.00e+00f  1
  18  1.1764919e-03 0.00e+00 1.62e-03 -11.0 5.81e-02    -  1.00e+00 1.00e+00f  1
  19  1.0844485e-03 0.00e+00 1.29e-03 -11.0 3.91e-01    -  1.00e+00 5.00e-01f  2
iter    objective    inf_pr   inf_du lg(mu)  ||d||  lg(rg) alpha_du alpha_pr  ls
  20  1.0666488e-03 0.00e+00 8.58e-03 -11.0 1.27e+00    -  1.00e+00 1.25e-01f  4
  21  9.4986524e-04 0.00e+00 1.40e-03 -10.5 8.36e+00    -  1.00e+00 1.20e-02f  6
  22  9.1283005e-04 0.00e+00 6.15e-03 -11.0 1.86e-01    -  1.00e+00 2.50e-01f  3
  23  7.7739381e-04 0.00e+00 4.99e-03 -11.0 1.61e-01    -  1.00e+00 5.00e-01f  2
  24  7.0344981e-04 0.00e+00 2.58e-03 -11.0 4.19e-01    -  1.00e+00 2.50e-01f  3
  25  6.1151591e-04 0.00e+00 6.82e-03 -11.0 7.15e-01    -  1.00e+00 5.00e-01f  2
  26  6.0828682e-04 0.00e+00 4.46e-03 -11.0 1.61e+00    -  1.00e+00 1.34e-02f  7
  27  5.6423321e-04 0.00e+00 4.95e-03 -10.6 5.58e-01    -  1.00e+00 1.25e-01f  4
  28  5.3985278e-04 0.00e+00 1.24e-03 -11.0 1.02e+00    -  1.00e+00 6.25e-02f  5
  29  5.2794238e-04 0.00e+00 1.35e-03 -11.0 1.58e+00    -  1.00e+00 4.99e-02f  5
iter    objective    inf_pr   inf_du lg(mu)  ||d||  lg(rg) alpha_du alpha_pr  ls
  30  4.4851315e-04 0.00e+00 3.78e-03 -11.0 1.86e-01    -  1.00e+00 1.00e+00f  1
  31  4.4269545e-04 0.00e+00 7.42e-04 -10.7 2.35e+00    -  1.00e+00 1.46e-02f  5
  32  3.9788059e-04 0.00e+00 1.14e-03 -11.0 8.44e-02    -  1.00e+00 1.00e+00f  1
  33  3.9611560e-04 0.00e+00 2.64e-03 -11.0 5.59e-02    -  1.00e+00 1.00e+00f  1
  34  3.9150067e-04 0.00e+00 2.75e-03 -10.7 5.17e-01    -  1.00e+00 6.25e-02f  5
  35  3.8010303e-04 0.00e+00 1.65e-03 -11.0 4.41e-01    -  1.00e+00 2.50e-01f  3
  36  3.7846953e-04 0.00e+00 3.89e-03 -11.0 1.76e+00    -  1.00e+00 1.56e-02f  7
  37  3.7244363e-04 0.00e+00 3.67e-03 -11.0 1.21e-01    -  1.00e+00 5.00e-01f  2
  38  3.6820178e-04 0.00e+00 2.11e-03 -10.7 4.80e+00    -  1.00e+00 6.36e-03f  8
  39  3.5457610e-04 0.00e+00 7.46e-04 -11.0 1.10e-01    -  1.00e+00 5.00e-01f  2
iter    objective    inf_pr   inf_du lg(mu)  ||d||  lg(rg) alpha_du alpha_pr  ls
  40  3.5188526e-04 0.00e+00 3.34e-04 -11.0 1.95e+00    -  1.00e+00 2.20e-02f  5
  41  3.3962914e-04 0.00e+00 6.30e-04 -10.3 1.21e+00    -  1.00e+00 6.25e-02f  5
  42  3.3921487e-04 0.00e+00 1.44e-03 -10.8 8.31e-01    -  1.00e+00 4.79e-02f  5
  43  3.3863280e-04 0.00e+00 9.31e-04 -11.0 1.79e+00    -  1.00e+00 5.95e-03f  8
  44  3.1758990e-04 0.00e+00 3.06e-03 -11.0 1.09e-01    -  1.00e+00 1.00e+00f  1
  45  3.1270064e-04 0.00e+00 1.15e-03 -10.4 8.53e+00    -  1.00e+00 3.18e-03f  7
  46  3.0745094e-04 0.00e+00 1.90e-03 -10.7 3.29e+00    -  1.00e+00 8.62e-03f  6
  47  3.0108831e-04 0.00e+00 2.91e-03 -11.0 9.62e-01    -  1.00e+00 5.97e-02f  5
  48  2.8730910e-04 0.00e+00 4.95e-04 -10.9 1.35e+00    -  1.00e+00 6.25e-02f  5
  49  2.7680211e-04 0.00e+00 2.19e-03 -10.4 9.22e+00    -  1.00e+00 7.97e-03f  6
iter    objective    inf_pr   inf_du lg(mu)  ||d||  lg(rg) alpha_du alpha_pr  ls
  50  2.7582202e-04 0.00e+00 2.27e-03 -10.2 2.88e+00    -  1.00e+00 5.47e-03f  8
  51  2.7576079e-04 0.00e+00 1.56e-03  -9.9 1.67e+00    -  1.00e+00 3.12e-02f  6
  52  2.7564957e-04 0.00e+00 9.69e-04 -10.6 1.07e+00    -  1.00e+00 3.91e-03f  9
  53  2.7198932e-04 0.00e+00 1.72e-03 -11.0 3.22e-01    -  1.00e+00 1.25e-01f  4
  54  2.7025774e-04 0.00e+00 1.44e-03 -11.0 1.86e-01    -  1.00e+00 2.50e-01f  3
  55  2.6922509e-04 0.00e+00 4.66e-04 -10.3 1.94e+01    -  1.00e+00 6.59e-03f  5
  56  2.6815804e-04 0.00e+00 7.63e-04  -9.6 6.03e+00    -  1.00e+00 1.76e-03f  9
  57  2.6371867e-04 0.00e+00 1.27e-03 -11.0 6.38e-02    -  1.00e+00 1.00e+00f  1
  58  2.6231065e-04 0.00e+00 1.70e-03 -11.0 1.58e-01    -  1.00e+00 1.25e-01f  4
  59  2.6197959e-04 0.00e+00 5.71e-04 -11.0 9.55e-01    -  1.00e+00 1.56e-02f  7
iter    objective    inf_pr   inf_du lg(mu)  ||d||  lg(rg) alpha_du alpha_pr  ls
  60  2.5960663e-04 0.00e+00 6.41e-04 -11.0 4.24e-02    -  1.00e+00 5.00e-01f  2
  61  2.5918086e-04 0.00e+00 1.22e-03 -11.0 4.60e-02    -  1.00e+00 2.50e-01f  3
  62  2.5686215e-04 0.00e+00 8.66e-04 -11.0 2.62e-01    -  1.00e+00 2.50e-01f  3
  63  2.5613081e-04 0.00e+00 5.55e-04 -10.1 7.20e+00    -  1.00e+00 4.09e-03f  7
  64  2.5572990e-04 0.00e+00 4.00e-04 -11.0 4.12e-01    -  1.00e+00 3.12e-02f  6
  65  2.4890330e-04 0.00e+00 2.33e-03 -10.7 1.58e+00    -  1.00e+00 6.25e-02f  5
  66  2.4840650e-04 0.00e+00 3.85e-03  -9.0 2.07e+02    -  1.00e+00 1.38e-04f  7
  67  2.4648743e-04 0.00e+00 3.12e-03  -9.4 2.13e-01    -  1.00e+00 1.25e-01f  4
  68  2.4562960e-04 0.00e+00 3.54e-03  -9.9 1.70e+00    -  1.00e+00 1.56e-02f  7
  69  2.4496079e-04 0.00e+00 2.97e-03 -10.2 7.61e-01    -  1.00e+00 6.84e-02f  4
iter    objective    inf_pr   inf_du lg(mu)  ||d||  lg(rg) alpha_du alpha_pr  ls
  70  2.4460362e-04 0.00e+00 3.31e-03  -9.3 3.95e-01    -  1.00e+00 3.12e-02f  6

Number of Iterations....: 70

                                   (scaled)                 (unscaled)
Objective...............:   2.4460361755765739e-04    2.4460361755765739e-04
Dual infeasibility......:   3.3106337027030471e-03    3.3106337027030471e-03
Constraint violation....:   0.0000000000000000e+00    0.0000000000000000e+00
Variable bound violation:   0.0000000000000000e+00    0.0000000000000000e+00
Complementarity.........:   5.5282736463806277e-10    5.5282736463806277e-10
Overall NLP error.......:   3.3106337027030471e-03    3.3106337027030471e-03


Number of objective function evaluations             = 423
Number of objective gradient evaluations             = 71
Number of equality constraint evaluations            = 0
Number of inequality constraint evaluations          = 423
Number of equality constraint Jacobian evaluations   = 0
Number of inequality constraint Jacobian evaluations = 71
Number of Lagrangian Hessian evaluations             = 0
Total seconds in IPOPT                               = 28.976

EXIT: Maximum Number of Iterations Exceeded.
